RT is False
Default write of storage_offers_DA.csv just to have a file (but constraint should be inactive)
Reading model...
...model read.
creating competitive generators file...
...competitive generators recorded.
Loading data...
.. day-ahead data read.
Compiling instance...
...instance created.
Creating Offer Mitigation (model will solve as dispatch if TRUE)...
NOTE: storage offers will not be mitigated
...storage offer mitigation file created
Converting model to MPEC...
...converted
NOTE: initial MIP solve with only storage competitive to get feasible solution
Solving...

Welcome to IBM(R) ILOG(R) CPLEX(R) Interactive Optimizer 12.9.0.0
  with Simplex, Mixed Integer & Barrier Optimizers
5725-A06 5725-A29 5724-Y48 5724-Y49 5724-Y54 5724-Y55 5655-Y21
Copyright IBM Corp. 1988, 2019.  All Rights Reserved.

Type 'help' for a list of available commands.
Type 'help' followed by a command name for more
information on commands.

CPLEX> Logfile 'cplex.log' closed.
Logfile 'C:\Users\Luke\Desktop\test919\logs\tmpu4tb2c0i.cplex.log' open.
CPLEX> New value for parallel optimization mode: -1
CPLEX> New value for mixed integer optimality gap tolerance: 0.01
CPLEX> New value for integrality tolerance: 1e-09
CPLEX> New value for feasibility tolerance: 0.01
CPLEX> New value for deterministic time limit in ticks: 75000
CPLEX> Problem 'C:\Users\Luke\Desktop\test919\logs\tmph4djufme.pyomo.lp' read.
Read time = 0.19 sec. (14.73 ticks)
CPLEX> Problem name         : C:\Users\Luke\Desktop\test919\logs\tmph4djufme.pyomo.lp
Objective sense      : Maximize
Variables            :   53805  [Nneg: 1,  Box: 22000,  Free: 4464,
                                 Binary: 27340]
Objective nonzeros   :    9076
Linear constraints   :  123205  [Less: 41346,  Greater: 59096,  Equal: 22763]
  Nonzeros           :  291897
  RHS nonzeros       :   67587

Variables            : Min LB: -5000.000        Max UB: 1000000.       
Objective nonzeros   : Min   : 0.1000000        Max   : 722.0000       
Linear constraints   :
  Nonzeros           : Min   : 0.1000000        Max   : 1000000.       
  RHS nonzeros       : Min   : 0.1000000        Max   : 1000000.       
CPLEX> CPXPARAM_Parallel                                -1
CPXPARAM_Simplex_Tolerances_Feasibility          0.01
CPXPARAM_DetTimeLimit                            75000
CPXPARAM_MIP_Tolerances_MIPGap                   0.01
CPXPARAM_MIP_Tolerances_Integrality              1.0000000000000001e-09
Tried aggregator 3 times.
MIP Presolve eliminated 88152 rows and 18529 columns.
MIP Presolve added 3494 rows and 0 columns.
MIP Presolve modified 25048 coefficients.
Aggregator did 13002 substitutions.
Reduced MIP has 25545 rows, 21795 columns, and 72691 nonzeros.
Reduced MIP has 8611 binaries, 0 generals, 0 SOSs, and 0 indicators.
Presolve time = 0.22 sec. (174.08 ticks)
Probing fixed 408 vars, tightened 2921 bounds.
Probing time = 1.34 sec. (884.96 ticks)
Tried aggregator 2 times.
MIP Presolve eliminated 927 rows and 829 columns.
MIP Presolve modified 2288 coefficients.
Aggregator did 40 substitutions.
Reduced MIP has 24578 rows, 20926 columns, and 69883 nonzeros.
Reduced MIP has 8197 binaries, 0 generals, 0 SOSs, and 0 indicators.
Presolve time = 0.11 sec. (76.09 ticks)
Probing time = 0.03 sec. (16.48 ticks)
Clique table members: 6303.
MIP emphasis: balance optimality and feasibility.
MIP search method: dynamic search.
Parallel mode: opportunistic, using up to 24 threads.
Root relaxation solution time = 0.50 sec. (338.99 ticks)

        Nodes                                         Cuts/
   Node  Left     Objective  IInf  Best Integer    Best Bound    ItCnt     Gap

      0     0     3919.4303  2106                   3919.4303     7467         
      0     0     3919.4303   711                   Cuts: 682     7754         
      0     0     3919.4303   584                   Cuts: 397     7924         
      0     0     3919.4303   526                   Cuts: 200     7995         
      0     0     3919.4303   514                    Cuts: 84     8020         
      0     0     3919.4303   507                    Cuts: 60     8034         
      0     0     3919.4303   504                    Cuts: 56     8042         
      0     8    infeasible                         3914.0277     8646         
Elapsed time = 9.78 sec. (6612.81 ticks, tree = 0.02 MB, solutions = 0)
    442    58   -30074.8390    11                   3914.0277    11974         
*   797+  456                         3912.2916     3914.0277             0.04%
    935   566     3051.5072     4     3912.2916     3914.0277    14997    0.04%
*  1067   647      integral     0     3914.0277     3914.0277    15107    0.00%

Clique cuts applied:  28
Implied bound cuts applied:  30
Flow cuts applied:  239
Mixed integer rounding cuts applied:  21
Gomory fractional cuts applied:  58

Root node processing (before b&c):
  Real time             =    9.45 sec. (6604.95 ticks)
Parallel b&c, 24 threads:
  Real time             =    2.11 sec. (778.24 ticks)
  Sync time (average)   =    0.25 sec.
  Wait time (average)   =    0.00 sec.
                          ------------
Total (root+branch&cut) =   11.56 sec. (7383.19 ticks)

Solution pool: 5 solutions saved.

MIP - Integer optimal solution:  Objective =  3.9140277287e+03
Solution time =   11.58 sec.  Iterations = 16373  Nodes = 1179
Deterministic time = 7383.34 ticks  (637.70 ticks/sec)

CPLEX> Incumbent solution written to file 'C:\Users\Luke\Desktop\test919\logs\tmpativ57f3.cplex.sol'.
CPLEX> NOTE: no warmstart specified for MIP iteration, default behavior is true
NOTE: resolving with all competitive generators using storage-only solution to warmstart
Solving...

Welcome to IBM(R) ILOG(R) CPLEX(R) Interactive Optimizer 12.9.0.0
  with Simplex, Mixed Integer & Barrier Optimizers
5725-A06 5725-A29 5724-Y48 5724-Y49 5724-Y54 5724-Y55 5655-Y21
Copyright IBM Corp. 1988, 2019.  All Rights Reserved.

Type 'help' for a list of available commands.
Type 'help' followed by a command name for more
information on commands.

CPLEX> Logfile 'cplex.log' closed.
Logfile 'C:\Users\Luke\Desktop\test919\logs\tmpv4mt79bc.cplex.log' open.
CPLEX> New value for parallel optimization mode: -1
CPLEX> New value for mixed integer optimality gap tolerance: 0.01
CPLEX> New value for integrality tolerance: 1e-09
CPLEX> New value for feasibility tolerance: 0.01
CPLEX> New value for deterministic time limit in ticks: 75000
CPLEX> Problem 'C:\Users\Luke\Desktop\test919\logs\tmpdszlth4x.pyomo.lp' read.
Read time = 0.20 sec. (14.75 ticks)
CPLEX> MIP start file 'C:\Users\Luke\Desktop\test919\logs\tmpfsi9dksu.cplex.mst' read.
CPLEX> Problem name         : C:\Users\Luke\Desktop\test919\logs\tmpdszlth4x.pyomo.lp
Objective sense      : Maximize
Variables            :   54525  [Nneg: 1,  Box: 22720,  Free: 4464,
                                 Binary: 27340]
Objective nonzeros   :    9796
Linear constraints   :  123205  [Less: 41346,  Greater: 59096,  Equal: 22763]
  Nonzeros           :  291897
  RHS nonzeros       :   67587

Variables            : Min LB: -5000.000        Max UB: 1000000.       
Objective nonzeros   : Min   : 0.1000000        Max   : 722.0000       
Linear constraints   :
  Nonzeros           : Min   : 0.1000000        Max   : 1000000.       
  RHS nonzeros       : Min   : 0.1000000        Max   : 1000000.       
CPLEX> CPXPARAM_Parallel                                -1
CPXPARAM_Simplex_Tolerances_Feasibility          0.01
CPXPARAM_DetTimeLimit                            75000
CPXPARAM_MIP_Tolerances_MIPGap                   0.01
CPXPARAM_MIP_Tolerances_Integrality              1.0000000000000001e-09
Warning:  No solution found from 1 MIP starts.
Retaining values of one MIP start for possible repair.
Tried aggregator 3 times.
MIP Presolve eliminated 88152 rows and 19249 columns.
MIP Presolve added 3494 rows and 0 columns.
MIP Presolve modified 25048 coefficients.
Aggregator did 13002 substitutions.
Reduced MIP has 25545 rows, 21795 columns, and 72691 nonzeros.
Reduced MIP has 8611 binaries, 0 generals, 0 SOSs, and 0 indicators.
Presolve time = 0.23 sec. (174.44 ticks)
Probing fixed 408 vars, tightened 2921 bounds.
Probing time = 1.38 sec. (884.96 ticks)
Tried aggregator 2 times.
MIP Presolve eliminated 927 rows and 829 columns.
MIP Presolve modified 2288 coefficients.
Aggregator did 40 substitutions.
Reduced MIP has 24578 rows, 20926 columns, and 69883 nonzeros.
Reduced MIP has 8197 binaries, 0 generals, 0 SOSs, and 0 indicators.
Presolve time = 0.11 sec. (76.09 ticks)
Probing time = 0.03 sec. (16.48 ticks)
Clique table members: 6303.
MIP emphasis: balance optimality and feasibility.
MIP search method: dynamic search.
Parallel mode: opportunistic, using up to 24 threads.
Root relaxation solution time = 0.47 sec. (338.99 ticks)

        Nodes                                         Cuts/
   Node  Left     Objective  IInf  Best Integer    Best Bound    ItCnt     Gap

      0     0     3919.4303  2106                   3919.4303     7467         
      0     0     3919.4303   711                   Cuts: 682     7754         
      0     0     3919.4303   584                   Cuts: 397     7924         
      0     0     3919.4303   526                   Cuts: 200     7995         
      0     0     3919.4303   514                    Cuts: 84     8020         
      0     0     3919.4303   507                    Cuts: 60     8034         
      0     0     3919.4303   504                    Cuts: 56     8042         
*     0+    0                         3912.2916     3919.4303             0.18%
Repair heuristic succeeded.

Clique cuts applied:  28
Implied bound cuts applied:  30
Flow cuts applied:  237
Mixed integer rounding cuts applied:  21
Gomory fractional cuts applied:  56

Root node processing (before b&c):
  Real time             =    9.63 sec. (6617.02 ticks)
Parallel b&c, 24 threads:
  Real time             =    0.00 sec. (0.00 ticks)
  Sync time (average)   =    0.00 sec.
  Wait time (average)   =    0.00 sec.
                          ------------
Total (root+branch&cut) =    9.63 sec. (6617.02 ticks)

Solution pool: 1 solution saved.

MIP - Integer optimal, tolerance (0.01/1e-06):  Objective =  3.9122916198e+03
Current MIP best bound =  3.9194303266e+03 (gap = 7.13871, 0.18%)
Solution time =    9.63 sec.  Iterations = 8042  Nodes = 0 (1)
Deterministic time = 6617.17 ticks  (687.50 ticks/sec)

CPLEX> Incumbent solution written to file 'C:\Users\Luke\Desktop\test919\logs\tmpinpqcqe_.cplex.sol'.
CPLEX> Exporting results... 
